p cnf 250 400
-9 17 50 51 52 0
-9 17 50 51 -52 0
-9 17 50 -51 52 0
-9 17 50 -51 -52 0
17 20 -50 53 54 0
17 20 -50 53 -54 0
17 20 -50 -53 54 0
17 20 -50 -53 -54 0
17 -20 -50 55 56 0
17 -20 -50 55 -56 0
17 -20 -50 -55 56 0
17 -20 -50 -55 -56 0
-9 -17 39 57 58 0
-9 -17 39 57 -58 0
-9 -17 39 -57 58 0
-9 -17 39 -57 -58 0
-9 -17 -39 59 60 0
-9 -17 -39 59 -60 0
-9 -17 -39 -59 60 0
-9 -17 -39 -59 -60 0
9 29 43 61 62 0
9 29 43 61 -62 0
9 29 43 -61 62 0
9 29 43 -61 -62 0
9 -29 43 63 64 0
9 -29 43 63 -64 0
9 -29 43 -63 64 0
9 -29 43 -63 -64 0
9 10 -43 65 66 0
9 10 -43 65 -66 0
9 10 -43 -65 66 0
9 10 -43 -65 -66 0
-10 -27 -43 67 68 0
-10 -27 -43 67 -68 0
-10 -27 -43 -67 68 0
-10 -27 -43 -67 -68 0
4 -10 -43 69 70 0
4 -10 -43 69 -70 0
4 -10 -43 -69 70 0
4 -10 -43 -69 -70 0
-4 -6 -10 71 72 0
-4 -6 -10 71 -72 0
-4 -6 -10 -71 72 0
-4 -6 -10 -71 -72 0
-4 11 -16 73 74 0
-4 11 -16 73 -74 0
-4 11 -16 -73 74 0
-4 11 -16 -73 -74 0
6 -11 -16 75 76 0
6 -11 -16 75 -76 0
6 -11 -16 -75 76 0
6 -11 -16 -75 -76 0
-4 6 26 77 78 0
-4 6 26 77 -78 0
-4 6 26 -77 78 0
-4 6 26 -77 -78 0
11 -26 39 79 80 0
11 -26 39 79 -80 0
11 -26 39 -79 80 0
11 -26 39 -79 -80 0
6 -11 39 81 82 0
6 -11 39 81 -82 0
6 -11 39 -81 82 0
6 -11 39 -81 -82 0
-26 32 38 83 84 0
-26 32 38 83 -84 0
-26 32 38 -83 84 0
-26 32 38 -83 -84 0
32 -38 -39 85 86 0
32 -38 -39 85 -86 0
32 -38 -39 -85 86 0
32 -38 -39 -85 -86 0
12 -26 -32 87 88 0
12 -26 -32 87 -88 0
12 -26 -32 -87 88 0
12 -26 -32 -87 -88 0
-12 25 -39 89 90 0
-12 25 -39 89 -90 0
-12 25 -39 -89 90 0
-12 25 -39 -89 -90 0
-13 -25 -32 91 92 0
-13 -25 -32 91 -92 0
-13 -25 -32 -91 92 0
-13 -25 -32 -91 -92 0
7 -12 -25 93 94 0
7 -12 -25 93 -94 0
7 -12 -25 -93 94 0
7 -12 -25 -93 -94 0
-7 28 49 95 96 0
-7 28 49 95 -96 0
-7 28 49 -95 96 0
-7 28 49 -95 -96 0
-7 -25 49 97 98 0
-7 -25 49 97 -98 0
-7 -25 49 -97 98 0
-7 -25 49 -97 -98 0
-7 33 -49 99 100 0
-7 33 -49 99 -100 0
-7 33 -49 -99 100 0
-7 33 -49 -99 -100 0
8 -33 -49 101 102 0
8 -33 -49 101 -102 0
8 -33 -49 -101 102 0
8 -33 -49 -101 -102 0
1 -8 -49 103 104 0
1 -8 -49 103 -104 0
1 -8 -49 -103 104 0
1 -8 -49 -103 -104 0
-1 -8 21 105 106 0
-1 -8 21 105 -106 0
-1 -8 21 -105 106 0
-1 -8 21 -105 -106 0
-1 5 36 107 108 0
-1 5 36 107 -108 0
-1 5 36 -107 108 0
-1 5 36 -107 -108 0
-5 -8 36 109 110 0
-5 -8 36 109 -110 0
-5 -8 36 -109 110 0
-5 -8 36 -109 -110 0
-1 -14 -36 111 112 0
-1 -14 -36 111 -112 0
-1 -14 -36 -111 112 0
-1 -14 -36 -111 -112 0
-21 -36 -50 113 114 0
-21 -36 -50 113 -114 0
-21 -36 -50 -113 114 0
-21 -36 -50 -113 -114 0
14 24 -36 115 116 0
14 24 -36 115 -116 0
14 24 -36 -115 116 0
14 24 -36 -115 -116 0
14 -24 -38 117 118 0
14 -24 -38 117 -118 0
14 -24 -38 -117 118 0
14 -24 -38 -117 -118 0
-23 34 50 119 120 0
-23 34 50 119 -120 0
-23 34 50 -119 120 0
-23 34 50 -119 -120 0
-23 -24 -34 121 122 0
-23 -24 -34 121 -122 0
-23 -24 -34 -121 122 0
-23 -24 -34 -121 -122 0
23 -24 -34 123 124 0
23 -24 -34 123 -124 0
23 -24 -34 -123 124 0
23 -24 -34 -123 -124 0
23 34 -42 125 126 0
23 34 -42 125 -126 0
23 34 -42 -125 126 0
23 34 -42 -125 -126 0
28 34 42 127 128 0
28 34 42 127 -128 0
28 34 42 -127 128 0
28 34 42 -127 -128 0
-11 -28 42 129 130 0
-11 -28 42 129 -130 0
-11 -28 42 -129 130 0
-11 -28 42 -129 -130 0
15 -28 42 131 132 0
15 -28 42 131 -132 0
15 -28 42 -131 132 0
15 -28 42 -131 -132 0
23 35 45 133 134 0
23 35 45 133 -134 0
23 35 45 -133 134 0
23 35 45 -133 -134 0
-23 -28 45 135 136 0
-23 -28 45 135 -136 0
-23 -28 45 -135 136 0
-23 -28 45 -135 -136 0
-15 -35 45 137 138 0
-15 -35 45 137 -138 0
-15 -35 45 -137 138 0
-15 -35 45 -137 -138 0
-15 -17 -45 139 140 0
-15 -17 -45 139 -140 0
-15 -17 -45 -139 140 0
-15 -17 -45 -139 -140 0
12 -15 30 141 142 0
12 -15 30 141 -142 0
12 -15 30 -141 142 0
12 -15 30 -141 -142 0
-12 30 -45 143 144 0
-12 30 -45 143 -144 0
-12 30 -45 -143 144 0
-12 30 -45 -143 -144 0
22 -30 -45 145 146 0
22 -30 -45 145 -146 0
22 -30 -45 -145 146 0
22 -30 -45 -145 -146 0
-22 -30 -37 147 148 0
-22 -30 -37 147 -148 0
-22 -30 -37 -147 148 0
-22 -30 -37 -147 -148 0
-3 -22 -30 149 150 0
-3 -22 -30 149 -150 0
-3 -22 -30 -149 150 0
-3 -22 -30 -149 -150 0
3 -22 -47 151 152 0
3 -22 -47 151 -152 0
3 -22 -47 -151 152 0
3 -22 -47 -151 -152 0
37 40 44 153 154 0
37 40 44 153 -154 0
37 40 44 -153 154 0
37 40 44 -153 -154 0
-31 40 44 155 156 0
-31 40 44 155 -156 0
-31 40 44 -155 156 0
-31 40 44 -155 -156 0
4 13 37 157 158 0
4 13 37 157 -158 0
4 13 37 -157 158 0
4 13 37 -157 -158 0
13 37 -40 159 160 0
13 37 -40 159 -160 0
13 37 -40 -159 160 0
13 37 -40 -159 -160 0
-13 33 -40 161 162 0
-13 33 -40 161 -162 0
-13 33 -40 -161 162 0
-13 33 -40 -161 -162 0
-13 -33 44 163 164 0
-13 -33 44 163 -164 0
-13 -33 44 -163 164 0
-13 -33 44 -163 -164 0
2 3 -44 165 166 0
2 3 -44 165 -166 0
2 3 -44 -165 166 0
2 3 -44 -165 -166 0
-2 -40 -44 167 168 0
-2 -40 -44 167 -168 0
-2 -40 -44 -167 168 0
-2 -40 -44 -167 -168 0
27 43 47 169 170 0
27 43 47 169 -170 0
27 43 47 -169 170 0
27 43 47 -169 -170 0
-2 16 41 171 172 0
-2 16 41 171 -172 0
-2 16 41 -171 172 0
-2 16 41 -171 -172 0
-16 27 47 173 174 0
-16 27 47 173 -174 0
-16 27 47 -173 174 0
-16 27 47 -173 -174 0
-27 41 47 175 176 0
-27 41 47 175 -176 0
-27 41 47 -175 176 0
-27 41 47 -175 -176 0
41 -44 -47 177 178 0
41 -44 -47 177 -178 0
41 -44 -47 -177 178 0
41 -44 -47 -177 -178 0
-18 38 -41 179 180 0
-18 38 -41 179 -180 0
-18 38 -41 -179 180 0
-18 38 -41 -179 -180 0
-2 -18 -38 181 182 0
-2 -18 -38 181 -182 0
-2 -18 -38 -181 182 0
-2 -18 -38 -181 -182 0
40 -41 46 183 184 0
40 -41 46 183 -184 0
40 -41 46 -183 184 0
40 -41 46 -183 -184 0
-20 33 -46 185 186 0
-20 33 -46 185 -186 0
-20 33 -46 -185 186 0
-20 33 -46 -185 -186 0
-20 -33 -41 187 188 0
-20 -33 -41 187 -188 0
-20 -33 -41 -187 188 0
-20 -33 -41 -187 -188 0
18 19 28 189 190 0
18 19 28 189 -190 0
18 19 28 -189 190 0
18 19 28 -189 -190 0
14 18 19 191 192 0
14 18 19 191 -192 0
14 18 19 -191 192 0
14 18 19 -191 -192 0
-14 18 19 193 194 0
-14 18 19 193 -194 0
-14 18 19 -193 194 0
-14 18 19 -193 -194 0
-5 -19 -46 195 196 0
-5 -19 -46 195 -196 0
-5 -19 -46 -195 196 0
-5 -19 -46 -195 -196 0
-5 -18 -46 197 198 0
-5 -18 -46 197 -198 0
-5 -18 -46 -197 198 0
-5 -18 -46 -197 -198 0
20 21 -35 199 200 0
20 21 -35 199 -200 0
20 21 -35 -199 200 0
20 21 -35 -199 -200 0
-19 20 -35 201 202 0
-19 20 -35 201 -202 0
-19 20 -35 -201 202 0
-19 20 -35 -201 -202 0
3 35 -48 203 204 0
3 35 -48 203 -204 0
3 35 -48 -203 204 0
3 35 -48 -203 -204 0
-3 -19 -48 205 206 0
-3 -19 -48 205 -206 0
-3 -19 -48 -205 206 0
-3 -19 -48 -205 -206 0
29 35 48 207 208 0
29 35 48 207 -208 0
29 35 48 -207 208 0
29 35 48 -207 -208 0
-29 31 38 209 210 0
-29 31 38 209 -210 0
-29 31 38 -209 210 0
-29 31 38 -209 -210 0
27 31 48 211 212 0
27 31 48 211 -212 0
27 31 48 -211 212 0
27 31 48 -211 -212 0
-29 31 48 213 214 0
-29 31 48 213 -214 0
-29 31 48 -213 214 0
-29 31 48 -213 -214 0
4 12 16 215 216 0
4 12 16 215 -216 0
4 12 16 -215 216 0
4 12 16 -215 -216 0
25 26 -42 217 218 0
25 26 -42 217 -218 0
25 26 -42 -217 218 0
25 26 -42 -217 -218 0
-6 13 -37 219 220 0
-6 13 -37 219 -220 0
-6 13 -37 -219 220 0
-6 13 -37 -219 -220 0
11 25 -37 221 222 0
11 25 -37 221 -222 0
11 25 -37 -221 222 0
11 25 -37 -221 -222 0
8 16 -47 223 224 0
8 16 -47 223 -224 0
8 16 -47 -223 224 0
8 16 -47 -223 -224 0
1 15 -31 225 226 0
1 15 -31 225 -226 0
1 15 -31 -225 226 0
1 15 -31 -225 -226 0
1 10 -21 227 228 0
1 10 -21 227 -228 0
1 10 -21 -227 228 0
1 10 -21 -227 -228 0
-14 22 -42 229 230 0
-14 22 -42 229 -230 0
-14 22 -42 -229 230 0
-14 22 -42 -229 -230 0
32 -32 36 231 232 0
32 -32 36 231 -232 0
32 -32 36 -231 232 0
32 -32 36 -231 -232 0
2 10 -21 233 234 0
2 10 -21 233 -234 0
2 10 -21 -233 234 0
2 10 -21 -233 -234 0
-3 5 8 235 236 0
-3 5 8 235 -236 0
-3 5 8 -235 236 0
-3 5 8 -235 -236 0
15 21 22 237 238 0
15 21 22 237 -238 0
15 21 22 -237 238 0
15 21 22 -237 -238 0
5 7 29 239 240 0
5 7 29 239 -240 0
5 7 29 -239 240 0
5 7 29 -239 -240 0
26 -27 50 241 242 0
26 -27 50 241 -242 0
26 -27 50 -241 242 0
26 -27 50 -241 -242 0
30 -31 -48 243 244 0
30 -31 -48 243 -244 0
30 -31 -48 -243 244 0
30 -31 -48 -243 -244 0
7 -34 46 245 246 0
7 -34 46 245 -246 0
7 -34 46 -245 246 0
7 -34 46 -245 -246 0
-6 24 49 247 248 0
-6 24 49 247 -248 0
-6 24 49 -247 248 0
-6 24 49 -247 -248 0
2 24 46 249 250 0
2 24 46 249 -250 0
2 24 46 -249 250 0
2 24 46 -249 -250 0
